8 6 104
6 7 1 7 2 7 3 1 1 2 2 3 2 2 22 22 42 42 64 64 76 76 92 92 104 
5 5 1 4 1 8 2 4 2 1 2 15 35 35 63 63 81 81 93 93 103 
4 6 1 6 2 3 1 8 3 5 29 29 67 67 87 87 101 
4 8 1 2 1 5 2 6 3 18 38 38 58 58 92 92 104 
14 7 1 5 1 5 1 4 1 4 1 5 2 8 2 2 2 2 2 6 3 6 3 8 3 8 3 3 2 0 2 2 11 11 15 15 25 25 29 35 38 38 44 55 58 58 65 65 68 68 71 75 81 81 85 87 91 
10 6 1 8 1 8 1 2 1 2 1 3 1 3 1 1 1 1 1 1 2 0 5 5 11 11 18 18 25 25 32 32 39 39 44 44 50 50 52 76 78 
